Sat 19 May 19:21:10 CEST 2018
CPXPARAM_TimeLimit                               45
CPXPARAM_Threads                                 1
CPXPARAM_MIP_Strategy_CallbackReducedLP          0
Tried aggregator 3 times.
MIP Presolve eliminated 84 rows and 86 columns.
Aggregator did 56 substitutions.
Reduced MIP has 88 rows, 87 columns, and 200 nonzeros.
Reduced MIP has 84 binaries, 3 generals, 0 SOSs, and 14 indicators.
Presolve time = 0.00 sec. (0.38 ticks)
Found incumbent of value 2.000000 after 0.00 sec. (0.78 ticks)
Probing time = 0.00 sec. (0.20 ticks)
Cover probing fixed 0 vars, tightened 3 bounds.
Tried aggregator 3 times.
MIP Presolve modified 28 coefficients.
Aggregator did 42 substitutions.
Reduced MIP has 60 rows, 45 columns, and 144 nonzeros.
Reduced MIP has 42 binaries, 3 generals, 0 SOSs, and 0 indicators.
Presolve time = 0.00 sec. (0.24 ticks)
Probing time = 0.00 sec. (0.07 ticks)
Tried aggregator 2 times.
Aggregator did 14 substitutions.
Reduced MIP has 46 rows, 31 columns, and 116 nonzeros.
Reduced MIP has 28 binaries, 3 generals, 0 SOSs, and 0 indicators.
Presolve time = 0.00 sec. (0.13 ticks)
Probing time = 0.00 sec. (0.04 ticks)
Tried aggregator 1 time.
Reduced MIP has 46 rows, 31 columns, and 116 nonzeros.
Reduced MIP has 28 binaries, 3 generals, 0 SOSs, and 0 indicators.
Presolve time = 0.00 sec. (0.10 ticks)
Probing time = 0.00 sec. (0.04 ticks)
Clique table members: 16.
MIP emphasis: balance optimality and feasibility.
MIP search method: dynamic search.
Parallel mode: none, using 1 thread.
Root relaxation solution time = 0.00 sec. (0.05 ticks)

        Nodes                                         Cuts/
   Node  Left     Objective  IInf  Best Integer    Best Bound    ItCnt     Gap

*     0+    0                            2.0000        1.0000            50.00%
*     0     0      integral     0        1.0000        1.0000       15    0.00%
Elapsed time = 0.01 sec. (1.84 ticks, tree = 0.00 MB, solutions = 2)

Root node processing (before b&c):
  Real time             =    0.01 sec. (1.85 ticks)
Sequential b&c:
  Real time             =    0.00 sec. (0.00 ticks)
                          ------------
Total (root+branch&cut) =    0.01 sec. (1.85 ticks)
  | W
L | 0 1 2 3 4 5 6 
------------------
0 | 1 2 . . . . . 
1 | . . . . . . . 

Boxes' corners:      (w,l)
    Box 1 is at 
        top left     (0,0)
        bottom right (0,0)

    Box 2 is at 
        top left     (1,0)
        bottom right (1,0)

    Roll length used: 1
In 0 seconds
